Version identifier: 22.1.1.0 | 2022-11-28 | 9160aff4d
CPXPARAM_ClockType                               1
CPXPARAM_Read_DataCheck                          1
CPXPARAM_Threads                                 1
CPXPARAM_TimeLimit                               7200
CPXPARAM_MIP_Tolerances_AbsMIPGap                0
CPXPARAM_MIP_Tolerances_MIPGap                   0
CPXPARAM_MIP_Tolerances_Integrality              0
Found incumbent of value 0.000000 after 0.00 sec. (1.41 ticks)
Tried aggregator 1 time.
MIP Presolve eliminated 1747 rows and 9 columns.
MIP Presolve modified 968 coefficients.
Reduced MIP has 8044 rows, 4491 columns, and 28266 nonzeros.
Reduced MIP has 4491 binaries, 0 generals, 0 SOSs, and 0 indicators.
Presolve time = 0.03 sec. (18.87 ticks)
Probing time = 0.01 sec. (4.17 ticks)
Tried aggregator 1 time.
Detecting symmetries...
MIP Presolve eliminated 500 rows and 0 columns.
Reduced MIP has 7544 rows, 4491 columns, and 26766 nonzeros.
Reduced MIP has 4491 binaries, 0 generals, 0 SOSs, and 0 indicators.
Presolve time = 0.04 sec. (21.92 ticks)
Probing time = 0.00 sec. (3.50 ticks)
Clique table members: 16215.
MIP emphasis: balance optimality and feasibility.
MIP search method: dynamic search.
Parallel mode: none, using 1 thread.
Root relaxation solution time = 1.57 sec. (1332.69 ticks)

        Nodes                                         Cuts/
   Node  Left     Objective  IInf  Best Integer    Best Bound    ItCnt     Gap

*     0+    0                            0.0000    24750.0000              --- 
      0     0     3300.0000  1338        0.0000     3300.0000     4887     --- 
      0     0     3300.0000  1245        0.0000      Cuts: 48     6255     --- 
      0     0     3300.0000  1135        0.0000      Cuts: 71     7680     --- 
      0     0     3300.0000  1221        0.0000      Cuts: 85     9456     --- 
      0     0     3300.0000  1086        0.0000   ZeroHalf: 7     9806     --- 
      0     0     3300.0000  1189        0.0000      Cuts: 68    10827     --- 
Detecting symmetries...
Detecting symmetries...
      0     2     3300.0000   901        0.0000     3300.0000    10827     --- 
Elapsed time = 11.84 sec. (8399.92 ticks, tree = 0.01 MB, solutions = 1)
      2     4     3300.0000   838        0.0000     3300.0000    11852     --- 
      4     6     3300.0000   926        0.0000     3300.0000    15840     --- 
      6     8     3300.0000   598        0.0000     3300.0000    20605     --- 
      7     9     3300.0000   577        0.0000     3300.0000    24220     --- 
     10    12     3300.0000   426        0.0000     3300.0000    25807     --- 
     13    15     3300.0000   629        0.0000     3300.0000    28881     --- 
     21    23     3300.0000   443        0.0000     3300.0000    31732     --- 
     24    26     3300.0000   766        0.0000     3300.0000    35274     --- 
     25    27     3300.0000   455        0.0000     3300.0000    37209     --- 
     27    29     3300.0000   718        0.0000     3300.0000    42804     --- 
Elapsed time = 21.27 sec. (16041.42 ticks, tree = 0.28 MB, solutions = 1)
     29    31     3300.0000   956        0.0000     3300.0000    57789     --- 
     33    35     3300.0000   390        0.0000     3300.0000    60514     --- 
     35    37     3300.0000   943        0.0000     3300.0000    63797     --- 
     37    39     3300.0000   979        0.0000     3300.0000    72361     --- 
     39    41     3300.0000   880        0.0000     3300.0000    78520     --- 
     42    44     3300.0000   874        0.0000     3300.0000    78661     --- 
     52    54     3299.4286  1236        0.0000     3300.0000    84537     --- 
     53    55     3300.0000   917        0.0000     3300.0000    89702     --- 
     54    56     3300.0000   732        0.0000     3300.0000    94658     --- 
     57    59     3300.0000   839        0.0000     3300.0000   101912     --- 
Elapsed time = 42.23 sec. (32508.75 ticks, tree = 0.80 MB, solutions = 1)
     60    62     3300.0000   924        0.0000     3300.0000   105298     --- 
     63    65     3300.0000   827        0.0000     3300.0000   111025     --- 
     67    69     3300.0000   782        0.0000     3300.0000   113427     --- 
     70    72     3300.0000   950        0.0000     3300.0000   115180     --- 
     72    74     3300.0000   895        0.0000     3300.0000   118659     --- 
     73    75     3300.0000   885        0.0000     3300.0000   122177     --- 
     74    76     3299.6216   973        0.0000     3300.0000   127591     --- 
     75    77     3299.1724  1182        0.0000     3300.0000   130528     --- 
     77    77    infeasible              0.0000     3300.0000   139365     --- 
     80    76    infeasible              0.0000     3300.0000   145576     --- 
Elapsed time = 59.76 sec. (47452.47 ticks, tree = 1.78 MB, solutions = 1)
     82    78     3300.0000  1047        0.0000     3300.0000   147772     --- 
     86    82     3300.0000   895        0.0000     3300.0000   151733     --- 
     92    88     3300.0000   821        0.0000     3300.0000   156630     --- 
     99    95     3300.0000   871        0.0000     3300.0000   161092     --- 
    104   100     3298.0000   946        0.0000     3300.0000   164565     --- 
    111   107     3300.0000   910        0.0000     3300.0000   167445     --- 
    114   110     3300.0000   973        0.0000     3300.0000   170519     --- 
    117   113     3300.0000   993        0.0000     3300.0000   174967     --- 
    122   114     3300.0000   826        0.0000     3300.0000   179456     --- 
    130   122     3300.0000   795        0.0000     3300.0000   182207     --- 
Elapsed time = 75.34 sec. (60199.93 ticks, tree = 4.33 MB, solutions = 1)
    140   132     3300.0000   818        0.0000     3300.0000   184836     --- 
    144   136     3300.0000   781        0.0000     3300.0000   188849     --- 
    150   142     3300.0000   892        0.0000     3300.0000   193673     --- 
    154   146     3300.0000   898        0.0000     3300.0000   197216     --- 
    159   151     3300.0000   879        0.0000     3300.0000   201354     --- 
    161   153     3300.0000   807        0.0000     3300.0000   203177     --- 
    167   159     3300.0000   971        0.0000     3300.0000   206033     --- 
    172   164     3300.0000   953        0.0000     3300.0000   210567     --- 
    176   168     3300.0000   822        0.0000     3300.0000   214470     --- 
    182   172     3300.0000   733        0.0000     3300.0000   218373     --- 
Elapsed time = 91.14 sec. (74621.01 ticks, tree = 7.37 MB, solutions = 1)
    188   172     3300.0000   930        0.0000     3300.0000   223978     --- 
    195   179     3300.0000   851        0.0000     3300.0000   226769     --- 
    204   188     3300.0000   857        0.0000     3300.0000   229436     --- 
    209   193     3300.0000  1119        0.0000     3300.0000   232816     --- 
    215   199     3300.0000   995        0.0000     3300.0000   237067     --- 
    220   204     3300.0000   992        0.0000     3300.0000   239634     --- 
    224   206     3300.0000  1069        0.0000     3300.0000   242994     --- 
    227   207     3299.7867   955        0.0000     3300.0000   248000     --- 
    237   215    infeasible              0.0000     3300.0000   254576     --- 
    243   218     3300.0000   842        0.0000     3300.0000   258620     --- 
Elapsed time = 107.21 sec. (88653.62 ticks, tree = 10.22 MB, solutions = 1)
    249   224     3300.0000   968        0.0000     3300.0000   261860     --- 
    259   234     3300.0000   863        0.0000     3300.0000   264471     --- 
    260   235     3300.0000   869        0.0000     3300.0000   264632     --- 
    266   241     3300.0000   927        0.0000     3300.0000   267497     --- 
    272   247     3300.0000   917        0.0000     3300.0000   270833     --- 
    277   252     3300.0000   972        0.0000     3300.0000   275389     --- 
    282   257     3300.0000   913        0.0000     3300.0000   277017     --- 
    288   263     3300.0000   964        0.0000     3300.0000   280289     --- 
    293   268     3300.0000   969        0.0000     3300.0000   283315     --- 
    297   272     3300.0000  1125        0.0000     3300.0000   287292     --- 
Elapsed time = 120.99 sec. (101383.94 ticks, tree = 13.57 MB, solutions = 1)
    299   274     3298.0000  1008        0.0000     3300.0000   290605     --- 
    301   276     3300.0000  1006        0.0000     3300.0000   293935     --- 
    303   278     3297.2143   982        0.0000     3300.0000   299199     --- 
    306   281     3297.7769   990        0.0000     3300.0000   303059     --- 
    313   286    infeasible              0.0000     3300.0000   307060     --- 
    318   287    infeasible              0.0000     3300.0000   310621     --- 
    320   289     3300.0000   978        0.0000     3300.0000   313050     --- 
    323   292     3300.0000   946        0.0000     3300.0000   317022     --- 
    333   302     3300.0000   695        0.0000     3300.0000   321789     --- 
    336   305     3299.3333  1025        0.0000     3300.0000   328337     --- 
Elapsed time = 135.75 sec. (114299.57 ticks, tree = 15.40 MB, solutions = 1)
    341   310     3294.0000   821        0.0000     3300.0000   333473     --- 
    348   317     3300.0000   860        0.0000     3300.0000   336275     --- 
    353   322     3300.0000   863        0.0000     3300.0000   339698     --- 
    355   324     3300.0000  1005        0.0000     3300.0000   344019     --- 
    358   327     3300.0000   975        0.0000     3300.0000   347222     --- 
    364   333     3300.0000   944        0.0000     3300.0000   350811     --- 
    365   334     3300.0000   925        0.0000     3300.0000   354400     --- 
    368   333     3300.0000  1008        0.0000     3300.0000   357636     --- 
    377   342     3300.0000   844        0.0000     3300.0000   361286     --- 
    381   346     3300.0000   735        0.0000     3300.0000   363704     --- 
Elapsed time = 148.38 sec. (126224.78 ticks, tree = 17.95 MB, solutions = 1)
    385   350     3300.0000  1063        0.0000     3300.0000   367014     --- 
    393   358     3300.0000   839        0.0000     3300.0000   370016     --- 
    398   363     3300.0000  1067        0.0000     3300.0000   374182     --- 
    401   366     3300.0000   703        0.0000     3300.0000   377152     --- 
    405   370     3300.0000   834        0.0000     3300.0000   380695     --- 
    410   375     3300.0000   882        0.0000     3300.0000   384186     --- 
    415   378     3300.0000   921        0.0000     3300.0000   387516     --- 
    424   387     3299.9699  1024        0.0000     3300.0000   391847     --- 
    429   386     3300.0000  1038        0.0000     3300.0000   396741     --- 
    452   409     3300.0000   864        0.0000     3300.0000   407480     --- 
Elapsed time = 164.39 sec. (141101.10 ticks, tree = 21.84 MB, solutions = 1)
    470   425    infeasible              0.0000     3300.0000   425030     --- 
    493   444     3300.0000   878        0.0000     3300.0000   438700     --- 
*   510+  459                           64.0000     3300.0000              --- 
    510   461     3300.0000   908       64.0000     3300.0000   449253     --- 
*   511+  460                          678.0000     3300.0000           386.73%
*   511+  460                          724.0000     3300.0000           355.80%
*   511+  460                          726.0000     3300.0000           354.55%
*   511+  460                          730.0000     3300.0000           352.05%
    512   463     3300.0000   906      730.0000     3300.0000   451946  352.05%
    528   479     3300.0000   898      730.0000     3300.0000   464801  352.05%
    550   501     3300.0000   881      730.0000     3300.0000   476730  352.05%
    573   520     3300.0000   955      730.0000     3300.0000   490346  352.05%
    586   533     3296.0000  1052      730.0000     3300.0000   501896  352.05%
    606   549     3300.0000   863      730.0000     3300.0000   514459  352.05%
    619   562     3270.2500   887      730.0000     3300.0000   526339  352.05%
Elapsed time = 269.22 sec. (225768.87 ticks, tree = 27.98 MB, solutions = 6)

Performing restart 1

Repeating presolve.
Tried aggregator 1 time.
Reduced MIP has 7544 rows, 4491 columns, and 26766 nonzeros.
Reduced MIP has 4491 binaries, 0 generals, 0 SOSs, and 0 indicators.
Presolve time = 0.02 sec. (14.20 ticks)
Tried aggregator 1 time.
MIP Presolve eliminated 0 rows and 1 columns.
MIP Presolve modified 11 coefficients.
Reduced MIP has 7544 rows, 4490 columns, and 26764 nonzeros.
Reduced MIP has 4490 binaries, 0 generals, 0 SOSs, and 0 indicators.
Presolve time = 0.05 sec. (28.32 ticks)
Represolve time = 0.13 sec. (73.64 ticks)
    621     0     3300.0000  1250      730.0000  ZeroHalf: 35   533135  352.05%
    621     0     3300.0000  1266      730.0000     Cuts: 123   536038  352.05%
    621     0     3300.0000  1107      730.0000   ZeroHalf: 9   537026  352.05%
    621     0     3300.0000  1054      730.0000     Cuts: 105   538276  352.05%
    621     0     3300.0000  1196      730.0000      Cuts: 37   539130  352.05%
    621     0     3300.0000   968      730.0000   ZeroHalf: 4   539468  352.05%
    621     0     3300.0000  1063      730.0000      Cuts: 85   540938  352.05%
    621     0     3300.0000   727      730.0000   ZeroHalf: 9   541273  352.05%
    621     0     3300.0000   991      730.0000     Cuts: 128   542407  352.05%
*   621+    0                          742.0000     3300.0000           344.74%
*   621+    0                          752.0000     3300.0000           338.83%
*   621+    0                         1032.0000     3300.0000           219.77%
    621     0        cutoff           1032.0000     3300.0000   542407  219.77%
    621     2     3300.0000   991     1032.0000     3300.0000   542407  219.77%
    622     3     3300.0000   980     1032.0000     3300.0000   556768  219.77%
    629    10     3300.0000   868     1032.0000     3300.0000   569342  219.77%
    645    26     3300.0000  1070     1032.0000     3300.0000   580568  219.77%
    661    42     3300.0000   914     1032.0000     3300.0000   592068  219.77%
    673    50    infeasible           1032.0000     3300.0000   604934  219.77%
    686    57     3299.1790   816     1032.0000     3300.0000   618952  219.77%
    694    61     3286.0000  1020     1032.0000     3300.0000   629466  219.77%
    703    64     3300.0000   832     1032.0000     3300.0000   643468  219.77%
    716    77     3291.0000   423     1032.0000     3300.0000   657279  219.77%
Elapsed time = 334.57 sec. (275405.01 ticks, tree = 4.10 MB, solutions = 9)
*   721+   76                         1260.0000     3300.0000           161.90%
*   721+   76                         1370.0000     3300.0000           140.88%
*   721+   76                         1378.0000     3300.0000           139.48%
    721    78     3300.0000   793     1378.0000     3300.0000   659081  139.48%
    742    99     3300.0000   946     1378.0000     3300.0000   670187  139.48%
    757   106    infeasible           1378.0000     3300.0000   682967  139.48%
    770   109     3300.0000  1016     1378.0000     3300.0000   695653  139.48%
    795   130     3300.0000   724     1378.0000     3300.0000   707805  139.48%
    811   146     3299.9308   981     1378.0000     3300.0000   720340  139.48%
    830   161     3298.0000   853     1378.0000     3300.0000   733443  139.48%
    846   173     3300.0000   965     1378.0000     3300.0000   745286  139.48%
    859   183     3300.0000   957     1378.0000     3300.0000   758156  139.48%
    867   185     3300.0000   728     1378.0000     3300.0000   768897  139.48%
Elapsed time = 400.22 sec. (330536.88 ticks, tree = 10.74 MB, solutions = 12)
    887   203     3235.0000   425     1378.0000     3300.0000   782510  139.48%
    901   213     3289.6667   761     1378.0000     3300.0000   795027  139.48%
    918   226     3300.0000   784     1378.0000     3300.0000   807112  139.48%
    926   230     3278.0000   991     1378.0000     3300.0000   822118  139.48%
    952   250     3300.0000   877     1378.0000     3300.0000   834843  139.48%
    962   260     3270.0000   473     1378.0000     3300.0000   848360  139.48%
    979   273     3294.8571   836     1378.0000     3300.0000   864370  139.48%
    997   279     3299.0000   763     1378.0000     3300.0000   876451  139.48%
   1008   286     3295.6667   772     1378.0000     3300.0000   891237  139.48%
   1024   294     3300.0000   495     1378.0000     3300.0000   906136  139.48%
Elapsed time = 449.15 sec. (370823.25 ticks, tree = 17.25 MB, solutions = 12)
   1044   308    infeasible           1378.0000     3300.0000   919827  139.48%
   1069   321     3299.0769   667     1378.0000     3300.0000   935134  139.48%
   1094   338     3298.9878   648     1378.0000     3300.0000   948649  139.48%
   1118   344    infeasible           1378.0000     3300.0000   962624  139.48%
   1147   359     3298.5000   624     1378.0000     3300.0000   975255  139.48%
   1175   373     3294.0000   804     1378.0000     3300.0000   991793  139.48%
   1185   373    infeasible           1378.0000     3300.0000  1007923  139.48%
   1206   384     3299.5714   892     1378.0000     3300.0000  1022230  139.48%
   1230   394    infeasible           1378.0000     3300.0000  1037428  139.48%
   1250   402     3299.3333   738     1378.0000     3300.0000  1052615  139.48%
Elapsed time = 497.61 sec. (411144.78 ticks, tree = 23.89 MB, solutions = 12)
   1272   418     3300.0000  1041     1378.0000     3300.0000  1067278  139.48%
   1281   423    infeasible           1378.0000     3300.0000  1081031  139.48%
   1295   429     3300.0000   933     1378.0000     3300.0000  1094258  139.48%
   1304   436     3300.0000   657     1378.0000     3300.0000  1107567  139.48%
   1320   448     3289.9192   753     1378.0000     3300.0000  1122888  139.48%
*  1321+  445                         3242.0000     3300.0000             1.79%
   1333   452        cutoff           3242.0000     3300.0000  1135550    1.79%
   1350   461     3300.0000   846     3242.0000     3300.0000  1147259    1.79%
   1365   473     3300.0000   981     3242.0000     3300.0000  1162637    1.79%
   1376   474     3300.0000   812     3242.0000     3300.0000  1176661    1.79%
   1400   488     3300.0000   757     3242.0000     3300.0000  1189011    1.79%
Elapsed time = 544.98 sec. (451939.53 ticks, tree = 29.16 MB, solutions = 13)
*  1421+  443                         3284.0000     3300.0000             0.49%
*  1421+  269                         3298.0000     3300.0000             0.06%
   1422   269     3300.0000   605     3298.0000     3300.0000  1203885    0.06%
   1437   277     3300.0000   881     3298.0000     3300.0000  1216252    0.06%
   1451   283     3300.0000   998     3298.0000     3300.0000  1232490    0.06%
   1467   291     3300.0000   767     3298.0000     3300.0000  1245674    0.06%
   1487   283        cutoff           3298.0000     3300.0000  1259576    0.06%
   1505   295     3300.0000   797     3298.0000     3300.0000  1272518    0.06%
   1521   297     3300.0000   985     3298.0000     3300.0000  1286716    0.06%
   1537   307     3300.0000   876     3298.0000     3300.0000  1299762    0.06%
*  1555     1      integral     0     3300.0000     3300.0000  1305193    0.00%

Clique cuts applied:  6
Cover cuts applied:  2
Implied bound cuts applied:  3
Zero-half cuts applied:  75
Gomory fractional cuts applied:  2

Root node processing (before b&c):
  Real time             =   11.82 sec. (8391.64 ticks)
Sequential b&c:
  Real time             =  572.08 sec. (478350.80 ticks)
                          ------------
Total (root+branch&cut) =  583.90 sec. (486742.44 ticks)
Solution is feasible.

---------------------
@@@ MIP_optimal
>>> Benchmark flat50-9.cnf k 10 OPT 3300 TimeCost 587.185938835144 TimeSolve 586.3470559120178 TimeRead 0.0017504692077636719 TimeTrans 0.837132453918457
